50
507
25
85
24
47
6
3
53
43
8
82
17
21
24
5
92
3
40
32
76
93
51
91
79
76
92
14
0 6
0 8
0 10
0 11
0 18
0 19
0 20
0 21
0 23
0 24
0 30
0 32
0 33
0 34
0 36
0 40
0 44
0 45
0 47
1 2
1 4
1 5
1 10
1 12
1 17
1 18
1 19
1 20
1 21
1 24
1 25
1 26
1 27
1 29
1 30
1 32
1 33
1 35
1 38
1 40
1 41
1 42
1 44
1 45
1 48
2 3
2 4
2 5
2 6
2 8
2 9
2 11
2 12
2 13
2 15
2 17
2 24
2 26
2 27
2 29
2 30
2 35
2 36
2 37
2 39
2 41
2 43
2 47
2 49
3 4
3 5
3 8
3 11
3 12
3 15
3 16
3 24
3 29
3 31
3 33
3 35
3 36
3 39
3 43
3 47
3 48
3 49
4 6
4 8
4 10
4 11
4 15
4 16
4 19
4 23
4 25
4 28
4 29
4 31
4 33
4 36
4 37
4 39
4 41
4 42
4 43
5 7
5 10
5 11
5 14
5 15
5 16
5 19
5 21
5 23
5 27
5 30
5 31
5 33
5 35
5 39
5 44
5 45
5 46
6 7
6 8
6 11
6 13
6 14
6 19
6 20
6 24
6 26
6 28
6 30
6 35
6 36
6 38
6 44
6 47
6 49
7 8
7 13
7 14
7 15
7 16
7 18
7 19
7 21
7 32
7 35
7 39
7 40
7 41
7 46
7 49
8 9
8 10
8 12
8 14
8 22
8 23
8 25
8 27
8 30
8 36
8 37
8 41
8 43
9 10
9 12
9 13
9 15
9 16
9 17
9 27
9 30
9 34
9 39
9 40
9 41
9 45
9 46
9 48
9 49
10 14
10 18
10 19
10 21
10 23
10 25
10 26
10 27
10 28
10 29
10 31
10 35
10 36
10 41
10 42
10 47
11 14
11 17
11 18
11 21
11 23
11 24
11 26
11 29
11 30
11 31
11 33
11 34
11 35
11 36
11 38
11 44
11 49
12 13
12 17
12 20
12 21
12 22
12 23
12 25
12 30
12 31
12 38
12 40
12 42
12 43
12 44
13 14
13 16
13 19
13 24
13 25
13 30
13 34
13 35
13 37
13 42
13 44
13 45
13 49
14 16
14 17
14 18
14 22
14 23
14 27
14 29
14 32
14 37
14 42
14 43
14 46
14 47
14 48
15 18
15 20
15 21
15 22
15 23
15 29
15 30
15 31
15 32
15 34
15 35
15 41
15 47
15 48
16 19
16 20
16 28
16 32
16 35
16 36
16 40
16 42
16 45
17 18
17 20
17 22
17 23
17 26
17 27
17 28
17 29
17 30
17 31
17 32
17 33
17 35
17 40
17 42
17 44
17 45
17 46
17 48
18 19
18 20
18 22
18 23
18 24
18 25
18 26
18 27
18 29
18 30
18 34
18 35
18 38
18 39
18 41
18 43
18 49
19 24
19 25
19 27
19 28
19 33
19 35
19 41
19 42
19 44
19 45
19 46
19 48
19 49
20 24
20 27
20 29
20 30
20 35
20 36
20 40
20 45
20 47
20 48
21 22
21 24
21 27
21 28
21 33
21 34
21 40
21 42
21 45
21 46
21 47
22 25
22 30
22 35
22 36
22 37
22 38
22 41
22 42
22 47
22 48
22 49
23 29
23 30
23 32
23 35
23 41
23 43
23 46
24 25
24 26
24 30
24 35
24 39
24 41
24 44
24 46
24 47
25 27
25 28
25 32
25 33
25 36
25 38
25 41
25 46
26 29
26 35
26 36
26 40
26 42
26 43
26 45
26 46
26 49
27 34
27 37
27 40
27 41
27 42
27 46
27 47
27 48
28 31
28 32
28 33
28 34
28 36
28 38
28 41
28 46
29 30
29 32
29 33
29 35
29 36
29 37
29 38
29 39
29 41
29 42
29 44
29 45
29 48
30 32
30 35
30 36
30 37
30 39
30 41
30 46
30 47
30 49
31 34
31 35
31 38
31 39
31 40
31 44
31 46
31 47
31 48
32 38
32 41
32 42
32 46
32 48
33 35
33 37
33 38
33 40
33 42
33 43
33 44
33 46
33 49
34 36
34 37
34 40
34 42
34 43
34 48
35 38
35 39
35 41
35 44
35 49
36 38
36 39
36 40
36 42
36 43
36 46
36 47
37 39
37 42
37 43
37 46
37 47
37 48
38 44
38 46
38 47
38 48
38 49
39 40
39 42
39 44
40 41
40 42
40 43
40 49
41 44
41 45
41 48
41 49
42 46
43 44
43 45
43 46
44 47
44 48
45 46
45 49
46 48
47 49
12 5
31 41
16 13
23 42
35 7
4 19
36 39
48 30
47 26
46 25
15 38
29 45
18 40
10 43
9 34
11 49
8 32
2 27
24 3
33 22
20 44
0 17
14 37
28 1
21 6
